(set-info :source |printed by MathSAT|)
(declare-fun |.x{317}| () Int)
(declare-fun |.y{7}| () Int)
(declare-fun |.y{6}| () Int)
(declare-fun |.y{8}| () Int)
(declare-fun |.x{318}| () (Array Int Int))
(declare-fun |.y{9}| () (Array Int Int))
(declare-fun |.x{316}| () Int)
(declare-fun |.y{10}| () Int)
(declare-fun |.x{313}| () Int)
(declare-fun |.y{11}| () Int)
(declare-fun |.loc{5}| () Bool)
(declare-fun |.loc{9}| () Bool)
(declare-fun |.loc{6}| () Bool)
(declare-fun |.loc{10}| () Bool)
(declare-fun |.loc{7}| () Bool)
(declare-fun |.loc{11}| () Bool)
(declare-fun |.loc{8}| () Bool)
(declare-fun |.loc{12}| () Bool)
(declare-fun |.x{319}| () Int)
(define-fun .def_18 () Bool (! |.loc{5}| :next |.loc{9}|))
(define-fun .def_82 () Bool (not .def_18))
(define-fun .def_20 () Bool (! |.loc{6}| :next |.loc{10}|))
(define-fun .def_33 () Bool (not .def_20))
(define-fun .def_358 () Bool (and .def_33 .def_82))
(define-fun .def_22 () Bool (! |.loc{7}| :next |.loc{11}|))
(define-fun .def_63 () Bool (not .def_22))
(define-fun .def_359 () Bool (and .def_63 .def_358))
(define-fun .def_24 () Bool (! |.loc{8}| :next |.loc{12}|))
(define-fun .def_46 () Bool (not .def_24))
(define-fun .def_360 () Bool (! (and .def_46 .def_359) :init true))
(define-fun .def_44 () Bool (not |.loc{11}|))
(define-fun .def_342 () Bool (and |.loc{12}| .def_44))
(define-fun .def_12 () (Array Int Int) (! |.x{318}| :next |.y{9}|))
(define-fun .def_294 () Int (select .def_12 |.x{319}|))
(define-fun .def_295 () Bool (= .def_294 50))
(define-fun .def_326 () Bool (not .def_295))
(define-fun .def_8 () Int (! |.x{317}| :next |.y{7}|))
(define-fun .def_30 () Bool (<= .def_8 0))
(define-fun .def_35 () Bool (not .def_30))
(define-fun .def_28 () Bool (<= |.x{319}| 0))
(define-fun .def_29 () Bool (not .def_28))
(define-fun .def_31 () Bool (or .def_29 .def_30))
(define-fun .def_32 () Bool (and |.loc{9}| .def_31))
(define-fun .def_324 () Bool (and .def_32 .def_35))
(define-fun .def_325 () Bool (and .def_35 .def_324))
(define-fun .def_327 () Bool (and .def_325 .def_326))
(define-fun .def_328 () Bool (and .def_20 .def_327))
(define-fun .def_53 () Int (* (- 1) |.x{319}|))
(define-fun .def_14 () Int (! |.x{316}| :next |.y{10}|))
(define-fun .def_308 () Int (+ .def_14 .def_53))
(define-fun .def_309 () Int (+ .def_8 .def_308))
(define-fun .def_310 () Bool (= .def_309 0))
(define-fun .def_329 () Bool (and .def_310 .def_328))
(define-fun .def_330 () Bool (and .def_310 .def_329))
(define-fun .def_331 () Bool (and .def_82 .def_330))
(define-fun .def_16 () Int (! |.x{313}| :next |.y{11}|))
(define-fun .def_313 () Bool (<= .def_16 .def_14))
(define-fun .def_314 () Bool (not .def_313))
(define-fun .def_332 () Bool (and .def_314 .def_331))
(define-fun .def_321 () Bool (= .def_14 |.y{11}|))
(define-fun .def_316 () Bool (= |.y{10}| 0))
(define-fun .def_85 () Bool (not |.loc{9}|))
(define-fun .def_104 () Bool (and .def_33 .def_85))
(define-fun .def_317 () Bool (and .def_104 .def_316))
(define-fun .def_10 () Int (! |.y{6}| :next |.y{8}|))
(define-fun .def_48 () Bool (<= .def_14 .def_10))
(define-fun .def_318 () Bool (and .def_48 .def_317))
(define-fun .def_51 () Bool (= .def_8 |.y{7}|))
(define-fun .def_319 () Bool (and .def_51 .def_318))
(define-fun .def_110 () Bool (= .def_12 |.y{9}|))
(define-fun .def_320 () Bool (and .def_110 .def_319))
(define-fun .def_322 () Bool (and .def_320 .def_321))
(define-fun .def_323 () Bool (and .def_18 .def_322))
(define-fun .def_333 () Bool (or .def_323 .def_332))
(define-fun .def_304 () Bool (= .def_16 |.y{11}|))
(define-fun .def_299 () Int (* (- 1) |.y{10}|))
(define-fun .def_300 () Int (+ .def_14 .def_299))
(define-fun .def_301 () Bool (= .def_300 (- 1)))
(define-fun .def_86 () Bool (and .def_31 .def_85))
(define-fun .def_293 () Bool (and .def_35 .def_86))
(define-fun .def_296 () Bool (and .def_293 .def_295))
(define-fun .def_297 () Bool (and .def_51 .def_296))
(define-fun .def_298 () Bool (and .def_110 .def_297))
(define-fun .def_302 () Bool (and .def_298 .def_301))
(define-fun .def_303 () Bool (and .def_20 .def_302))
(define-fun .def_305 () Bool (and .def_303 .def_304))
(define-fun .def_311 () Bool (and .def_305 .def_310))
(define-fun .def_312 () Bool (and .def_82 .def_311))
(define-fun .def_315 () Bool (and .def_312 .def_314))
(define-fun .def_334 () Bool (or .def_315 .def_333))
(define-fun .def_335 () Bool (and |.loc{10}| .def_334))
(define-fun .def_69 () Bool (and |.loc{9}| .def_33))
(define-fun .def_37 () Bool (not |.loc{10}|))
(define-fun .def_70 () Bool (and .def_37 .def_69))
(define-fun .def_287 () Bool (and .def_48 .def_70))
(define-fun .def_288 () Bool (and .def_51 .def_287))
(define-fun .def_289 () Bool (and .def_110 .def_288))
(define-fun .def_79 () Bool (= |.y{8}| 0))
(define-fun .def_290 () Bool (and .def_79 .def_289))
(define-fun .def_58 () Bool (= .def_14 |.y{10}|))
(define-fun .def_291 () Bool (and .def_58 .def_290))
(define-fun .def_292 () Bool (and .def_82 .def_291))
(define-fun .def_336 () Bool (or .def_292 .def_335))
(define-fun .def_279 () (Array Int Int) (store .def_12 |.x{319}| 50))
(define-fun .def_280 () Bool (= |.y{9}| .def_279))
(define-fun .def_40 () Int (* (- 1) |.y{8}|))
(define-fun .def_41 () Int (+ .def_10 .def_40))
(define-fun .def_42 () Bool (= .def_41 (- 1)))
(define-fun .def_34 () Bool (and .def_32 .def_33))
(define-fun .def_36 () Bool (and .def_34 .def_35))
(define-fun .def_38 () Bool (and .def_36 .def_37))
(define-fun .def_43 () Bool (and .def_38 .def_42))
(define-fun .def_281 () Bool (and .def_43 .def_280))
(define-fun .def_49 () Bool (not .def_48))
(define-fun .def_282 () Bool (and .def_49 .def_281))
(define-fun .def_283 () Bool (and .def_51 .def_282))
(define-fun .def_54 () Int (+ .def_10 .def_53))
(define-fun .def_55 () Int (+ .def_8 .def_54))
(define-fun .def_56 () Bool (= .def_55 0))
(define-fun .def_284 () Bool (and .def_56 .def_283))
(define-fun .def_285 () Bool (and .def_58 .def_284))
(define-fun .def_286 () Bool (and .def_18 .def_285))
(define-fun .def_337 () Bool (or .def_286 .def_336))
(define-fun .def_338 () Bool (and .def_24 .def_337))
(define-fun .def_339 () Bool (and .def_63 .def_338))
(define-fun .def_268 () Bool (and .def_37 .def_85))
(define-fun .def_269 () Bool (and .def_48 .def_268))
(define-fun .def_270 () Bool (and .def_46 .def_269))
(define-fun .def_271 () Bool (and .def_51 .def_270))
(define-fun .def_272 () Bool (and .def_110 .def_271))
(define-fun .def_273 () Bool (and .def_79 .def_272))
(define-fun .def_274 () Bool (and .def_58 .def_273))
(define-fun .def_275 () Bool (and .def_18 .def_274))
(define-fun .def_276 () Bool (and .def_20 .def_275))
(define-fun .def_277 () Bool (and .def_22 .def_276))
(define-fun .def_340 () Bool (or .def_277 .def_339))
(define-fun .def_253 () (Array Int Int) (store .def_12 |.x{319}| 49))
(define-fun .def_254 () Bool (= |.y{9}| .def_253))
(define-fun .def_255 () Bool (and .def_85 .def_254))
(define-fun .def_256 () Bool (and .def_31 .def_255))
(define-fun .def_257 () Bool (and .def_33 .def_256))
(define-fun .def_258 () Bool (and .def_35 .def_257))
(define-fun .def_259 () Bool (and .def_37 .def_258))
(define-fun .def_260 () Bool (and .def_42 .def_259))
(define-fun .def_261 () Bool (and .def_49 .def_260))
(define-fun .def_262 () Bool (and .def_51 .def_261))
(define-fun .def_263 () Bool (and .def_56 .def_262))
(define-fun .def_264 () Bool (and .def_58 .def_263))
(define-fun .def_265 () Bool (and .def_24 .def_264))
(define-fun .def_266 () Bool (and .def_82 .def_265))
(define-fun .def_267 () Bool (and .def_63 .def_266))
(define-fun .def_341 () Bool (or .def_267 .def_340))
(define-fun .def_343 () Bool (and .def_341 .def_342))
(define-fun .def_134 () Bool (and |.loc{9}| |.loc{10}|))
(define-fun .def_241 () Bool (and |.loc{11}| .def_134))
(define-fun .def_242 () Bool (and .def_48 .def_241))
(define-fun .def_243 () Bool (and .def_46 .def_242))
(define-fun .def_244 () Bool (and .def_51 .def_243))
(define-fun .def_245 () Bool (and .def_110 .def_244))
(define-fun .def_246 () Bool (and .def_79 .def_245))
(define-fun .def_247 () Bool (and .def_58 .def_246))
(define-fun .def_248 () Bool (and .def_20 .def_247))
(define-fun .def_61 () Bool (not |.loc{12}|))
(define-fun .def_249 () Bool (and .def_61 .def_248))
(define-fun .def_250 () Bool (and .def_22 .def_249))
(define-fun .def_251 () Bool (and .def_82 .def_250))
(define-fun .def_344 () Bool (or .def_251 .def_343))
(define-fun .def_229 () (Array Int Int) (store .def_12 |.x{319}| 48))
(define-fun .def_230 () Bool (= |.y{9}| .def_229))
(define-fun .def_117 () Bool (and |.loc{10}| .def_32))
(define-fun .def_118 () Bool (and .def_35 .def_117))
(define-fun .def_226 () Bool (and |.loc{11}| .def_118))
(define-fun .def_227 () Bool (and .def_42 .def_226))
(define-fun .def_231 () Bool (and .def_227 .def_230))
(define-fun .def_232 () Bool (and .def_46 .def_231))
(define-fun .def_233 () Bool (and .def_49 .def_232))
(define-fun .def_234 () Bool (and .def_51 .def_233))
(define-fun .def_235 () Bool (and .def_56 .def_234))
(define-fun .def_236 () Bool (and .def_58 .def_235))
(define-fun .def_237 () Bool (and .def_18 .def_236))
(define-fun .def_238 () Bool (and .def_20 .def_237))
(define-fun .def_239 () Bool (and .def_61 .def_238))
(define-fun .def_240 () Bool (and .def_22 .def_239))
(define-fun .def_345 () Bool (or .def_240 .def_344))
(define-fun .def_105 () Bool (and |.loc{10}| .def_104))
(define-fun .def_216 () Bool (and |.loc{11}| .def_105))
(define-fun .def_217 () Bool (and .def_48 .def_216))
(define-fun .def_218 () Bool (and .def_46 .def_217))
(define-fun .def_219 () Bool (and .def_51 .def_218))
(define-fun .def_220 () Bool (and .def_110 .def_219))
(define-fun .def_221 () Bool (and .def_79 .def_220))
(define-fun .def_222 () Bool (and .def_58 .def_221))
(define-fun .def_223 () Bool (and .def_18 .def_222))
(define-fun .def_224 () Bool (and .def_61 .def_223))
(define-fun .def_225 () Bool (and .def_22 .def_224))
(define-fun .def_346 () Bool (or .def_225 .def_345))
(define-fun .def_209 () (Array Int Int) (store .def_12 |.x{319}| 47))
(define-fun .def_210 () Bool (= |.y{9}| .def_209))
(define-fun .def_87 () Bool (and |.loc{10}| .def_86))
(define-fun .def_88 () Bool (and .def_35 .def_87))
(define-fun .def_201 () Bool (and |.loc{11}| .def_88))
(define-fun .def_202 () Bool (and .def_42 .def_201))
(define-fun .def_203 () Bool (and .def_46 .def_202))
(define-fun .def_204 () Bool (and .def_49 .def_203))
(define-fun .def_205 () Bool (and .def_51 .def_204))
(define-fun .def_206 () Bool (and .def_56 .def_205))
(define-fun .def_207 () Bool (and .def_58 .def_206))
(define-fun .def_211 () Bool (and .def_207 .def_210))
(define-fun .def_212 () Bool (and .def_20 .def_211))
(define-fun .def_213 () Bool (and .def_61 .def_212))
(define-fun .def_214 () Bool (and .def_22 .def_213))
(define-fun .def_215 () Bool (and .def_82 .def_214))
(define-fun .def_347 () Bool (or .def_215 .def_346))
(define-fun .def_190 () Bool (and |.loc{11}| .def_69))
(define-fun .def_191 () Bool (and .def_37 .def_190))
(define-fun .def_192 () Bool (and .def_48 .def_191))
(define-fun .def_193 () Bool (and .def_46 .def_192))
(define-fun .def_194 () Bool (and .def_51 .def_193))
(define-fun .def_195 () Bool (and .def_110 .def_194))
(define-fun .def_196 () Bool (and .def_79 .def_195))
(define-fun .def_197 () Bool (and .def_58 .def_196))
(define-fun .def_198 () Bool (and .def_61 .def_197))
(define-fun .def_199 () Bool (and .def_22 .def_198))
(define-fun .def_200 () Bool (and .def_82 .def_199))
(define-fun .def_348 () Bool (or .def_200 .def_347))
(define-fun .def_187 () (Array Int Int) (store .def_12 |.x{319}| 46))
(define-fun .def_188 () Bool (= |.y{9}| .def_187))
(define-fun .def_175 () Bool (and |.loc{11}| .def_36))
(define-fun .def_176 () Bool (and .def_37 .def_175))
(define-fun .def_177 () Bool (and .def_42 .def_176))
(define-fun .def_178 () Bool (and .def_46 .def_177))
(define-fun .def_179 () Bool (and .def_49 .def_178))
(define-fun .def_180 () Bool (and .def_51 .def_179))
(define-fun .def_181 () Bool (and .def_56 .def_180))
(define-fun .def_182 () Bool (and .def_58 .def_181))
(define-fun .def_183 () Bool (and .def_18 .def_182))
(define-fun .def_184 () Bool (and .def_61 .def_183))
(define-fun .def_185 () Bool (and .def_22 .def_184))
(define-fun .def_189 () Bool (and .def_185 .def_188))
(define-fun .def_349 () Bool (or .def_189 .def_348))
(define-fun .def_163 () Bool (and |.loc{11}| .def_85))
(define-fun .def_164 () Bool (and .def_37 .def_163))
(define-fun .def_165 () Bool (and .def_48 .def_164))
(define-fun .def_166 () Bool (and .def_46 .def_165))
(define-fun .def_167 () Bool (and .def_51 .def_166))
(define-fun .def_168 () Bool (and .def_110 .def_167))
(define-fun .def_169 () Bool (and .def_79 .def_168))
(define-fun .def_170 () Bool (and .def_58 .def_169))
(define-fun .def_171 () Bool (and .def_18 .def_170))
(define-fun .def_172 () Bool (and .def_20 .def_171))
(define-fun .def_173 () Bool (and .def_61 .def_172))
(define-fun .def_174 () Bool (and .def_63 .def_173))
(define-fun .def_350 () Bool (or .def_174 .def_349))
(define-fun .def_152 () (Array Int Int) (store .def_12 |.x{319}| 45))
(define-fun .def_153 () Bool (= |.y{9}| .def_152))
(define-fun .def_146 () Bool (and .def_33 .def_86))
(define-fun .def_147 () Bool (and .def_35 .def_146))
(define-fun .def_148 () Bool (and |.loc{11}| .def_147))
(define-fun .def_149 () Bool (and .def_37 .def_148))
(define-fun .def_150 () Bool (and .def_42 .def_149))
(define-fun .def_154 () Bool (and .def_150 .def_153))
(define-fun .def_155 () Bool (and .def_46 .def_154))
(define-fun .def_156 () Bool (and .def_49 .def_155))
(define-fun .def_157 () Bool (and .def_51 .def_156))
(define-fun .def_158 () Bool (and .def_56 .def_157))
(define-fun .def_159 () Bool (and .def_58 .def_158))
(define-fun .def_160 () Bool (and .def_61 .def_159))
(define-fun .def_161 () Bool (and .def_22 .def_160))
(define-fun .def_162 () Bool (and .def_82 .def_161))
(define-fun .def_351 () Bool (or .def_162 .def_350))
(define-fun .def_135 () Bool (and .def_44 .def_134))
(define-fun .def_136 () Bool (and .def_48 .def_135))
(define-fun .def_137 () Bool (and .def_46 .def_136))
(define-fun .def_138 () Bool (and .def_51 .def_137))
(define-fun .def_139 () Bool (and .def_110 .def_138))
(define-fun .def_140 () Bool (and .def_79 .def_139))
(define-fun .def_141 () Bool (and .def_58 .def_140))
(define-fun .def_142 () Bool (and .def_20 .def_141))
(define-fun .def_143 () Bool (and .def_61 .def_142))
(define-fun .def_144 () Bool (and .def_82 .def_143))
(define-fun .def_145 () Bool (and .def_63 .def_144))
(define-fun .def_352 () Bool (or .def_145 .def_351))
(define-fun .def_125 () (Array Int Int) (store .def_12 |.x{319}| 44))
(define-fun .def_126 () Bool (= |.y{9}| .def_125))
(define-fun .def_119 () Bool (and .def_42 .def_118))
(define-fun .def_120 () Bool (and .def_44 .def_119))
(define-fun .def_121 () Bool (and .def_46 .def_120))
(define-fun .def_122 () Bool (and .def_49 .def_121))
(define-fun .def_123 () Bool (and .def_51 .def_122))
(define-fun .def_127 () Bool (and .def_123 .def_126))
(define-fun .def_128 () Bool (and .def_56 .def_127))
(define-fun .def_129 () Bool (and .def_58 .def_128))
(define-fun .def_130 () Bool (and .def_18 .def_129))
(define-fun .def_131 () Bool (and .def_20 .def_130))
(define-fun .def_132 () Bool (and .def_61 .def_131))
(define-fun .def_133 () Bool (and .def_63 .def_132))
(define-fun .def_353 () Bool (or .def_133 .def_352))
(define-fun .def_106 () Bool (and .def_44 .def_105))
(define-fun .def_107 () Bool (and .def_48 .def_106))
(define-fun .def_108 () Bool (and .def_46 .def_107))
(define-fun .def_109 () Bool (and .def_51 .def_108))
(define-fun .def_111 () Bool (and .def_109 .def_110))
(define-fun .def_112 () Bool (and .def_79 .def_111))
(define-fun .def_113 () Bool (and .def_58 .def_112))
(define-fun .def_114 () Bool (and .def_18 .def_113))
(define-fun .def_115 () Bool (and .def_61 .def_114))
(define-fun .def_116 () Bool (and .def_63 .def_115))
(define-fun .def_354 () Bool (or .def_116 .def_353))
(define-fun .def_97 () (Array Int Int) (store .def_12 |.x{319}| 43))
(define-fun .def_98 () Bool (= |.y{9}| .def_97))
(define-fun .def_89 () Bool (and .def_42 .def_88))
(define-fun .def_90 () Bool (and .def_44 .def_89))
(define-fun .def_91 () Bool (and .def_46 .def_90))
(define-fun .def_92 () Bool (and .def_49 .def_91))
(define-fun .def_93 () Bool (and .def_51 .def_92))
(define-fun .def_94 () Bool (and .def_56 .def_93))
(define-fun .def_95 () Bool (and .def_58 .def_94))
(define-fun .def_99 () Bool (and .def_95 .def_98))
(define-fun .def_100 () Bool (and .def_20 .def_99))
(define-fun .def_101 () Bool (and .def_61 .def_100))
(define-fun .def_102 () Bool (and .def_82 .def_101))
(define-fun .def_103 () Bool (and .def_63 .def_102))
(define-fun .def_355 () Bool (or .def_103 .def_354))
(define-fun .def_76 () Bool (<= |.y{10}| 0))
(define-fun .def_77 () Bool (not .def_76))
(define-fun .def_73 () Bool (<= |.y{7}| 0))
(define-fun .def_74 () Bool (not .def_73))
(define-fun .def_71 () Bool (and .def_44 .def_70))
(define-fun .def_72 () Bool (and .def_46 .def_71))
(define-fun .def_75 () Bool (and .def_72 .def_74))
(define-fun .def_78 () Bool (and .def_75 .def_77))
(define-fun .def_80 () Bool (and .def_78 .def_79))
(define-fun .def_81 () Bool (and .def_61 .def_80))
(define-fun .def_83 () Bool (and .def_81 .def_82))
(define-fun .def_84 () Bool (and .def_63 .def_83))
(define-fun .def_356 () Bool (or .def_84 .def_355))
(define-fun .def_66 () (Array Int Int) (store .def_12 |.x{319}| 42))
(define-fun .def_67 () Bool (= |.y{9}| .def_66))
(define-fun .def_45 () Bool (and .def_43 .def_44))
(define-fun .def_47 () Bool (and .def_45 .def_46))
(define-fun .def_50 () Bool (and .def_47 .def_49))
(define-fun .def_52 () Bool (and .def_50 .def_51))
(define-fun .def_57 () Bool (and .def_52 .def_56))
(define-fun .def_59 () Bool (and .def_57 .def_58))
(define-fun .def_60 () Bool (and .def_18 .def_59))
(define-fun .def_62 () Bool (and .def_60 .def_61))
(define-fun .def_64 () Bool (and .def_62 .def_63))
(define-fun .def_68 () Bool (and .def_64 .def_67))
(define-fun .def_357 () Bool (! (or .def_68 .def_356) :trans true))
(define-fun .def_361 () Bool (and .def_18 .def_20))
(define-fun .def_362 () Bool (and .def_63 .def_361))
(define-fun .def_363 () Bool (and .def_24 .def_362))
(define-fun .def_364 () Bool (! (not .def_363) :invar-property 0))
(assert true)
